l=1420;
a=2;
setup_costs=[|0,3,
|3,2,
|0,0|];
setup_times=[|1,1,
|1,1,
|0,0|];
m=5;
min_cap=[0,0,0,0,0];
max_cap=[15,18,12,12,8];

initState=[2,2,1,2,1];
s=5;
m_a_s = [|0,215,772,877,1033,
|83,85,177,687,901,
|0,799,927,1124,1302,
|0,0,431,905,976,
|0,0,155,765,953|];
m_a_e = [|0,769,855,1002,1284,
|85,132,305,795,1396,
|0,842,1040,1193,1351,
|0,0,755,952,1402,
|0,0,548,850,1222|];
n=50;
eligible_machine = [{5,3},
{3},
{1,3},
{1,2},
{3,4},
{3},
{3,5},
{5,4},
{2},
{3,2},
{3,1,2},
{5},
{4,3},
{3},
{2},
{5,1,4},
{1,2},
{3,2,4},
{5},
{2,5},
{1,5},
{4,1,5},
{3},
{3},
{5},
{4,3,5},
{2,1,3,5},
{2,5},
{3},
{5},
{4,2},
{3,2,4},
{3,1},
{1,3,4},
{3},
{4,2,3,5},
{3},
{2,5},
{4},
{3,1},
{1,4,5},
{1,3,5},
{3},
{2,3},
{5},
{2},
{5},
{1,5},
{3,5},
{5}];
earliest_start=[65,78,3,58,49,41,128,108,6,125,24,83,123,104,14,90,135,65,65,134,130,23,39,83,97,125,64,7,83,87,11,85,12,121,123,79,56,66,117,5,28,9,136,21,41,116,67,123,14,35];
latest_end=[66,87,10,67,58,54,142,117,21,136,36,88,124,110,29,97,145,75,74,140,132,24,41,101,103,131,69,14,86,90,14,98,14,125,124,84,61,76,132,9,31,26,140,38,42,121,74,133,23,40];
min_time=[1,6,4,5,7,10,10,9,10,6,9,3,1,6,9,4,10,6,6,5,2,1,2,10,6,5,4,6,2,2,2,8,2,3,1,4,3,9,10,3,2,10,4,9,1,5,7,10,6,5];
max_time=[4,7,8,8,8,10,10,10,10,10,10,6,1,8,10,5,10,9,10,5,3,7,8,10,9,6,10,6,3,4,10,10,9,5,2,4,7,10,10,6,5,10,5,9,5,7,7,10,7,7];
size=[3,1,5,2,5,4,2,2,2,3,4,5,3,2,3,1,2,3,2,3,3,5,1,4,3,2,1,4,1,5,5,3,3,3,5,3,3,1,1,2,3,1,5,1,4,1,1,4,2,5];
attribute=[2,2,1,1,2,1,2,2,1,2,2,1,2,2,1,1,2,1,1,2,2,2,1,2,1,1,1,1,2,1,1,2,1,1,2,2,2,1,2,2,1,1,1,1,2,2,1,1,2,1];

upper_bound_integer_objective=2094671;
mult_factor_total_runtime=7701;
mult_factor_finished_toolate=151;
mult_factor_total_setuptimes=0;
mult_factor_total_setupcosts=1;
running_time_bound=271;
min_duration=1;
max_duration=10;
max_setup_time=1;
max_setup_cost=3;
